NAME : rc204.0.5414484.tour
COMMENT : Length = 5414484
COMMENT : Found by LKH [Keld Helsgaun] Tue May  2 05:20:28 2017
TYPE : TOUR
DIMENSION : 33
TOUR_SECTION
1
25
32
30
10
11
14
15
16
19
13
12
20
22
28
27
29
8
9
18
17
6
4
2
5
7
3
31
21
33
26
23
24
-1
EOF
